12 23
1 2 31
1 4 145
1 8 73
1 9 245
2 4 114
2 8 67
2 9 271
3 4 491
3 7 560
3 10 461
4 8 142
5 6 192
5 11 209
5 12 169
6 11 391
6 12 198
7 10 115
7 11 304
7 12 213
8 9 239
10 11 269
10 12 288
11 12 263
